HUN,8,6,703
5,24,1,25,3,21,2,22,0,30,4,25
3,29,5,24,0,30,4,27,2,25,1,26
2,21,3,26,0,22,4,25,5,24,1,26
0,21,3,23,2,26,1,29,5,30,4,22
0,22,2,23,4,27,5,24,1,29,3,30
5,30,3,23,0,26,2,24,4,29,1,30
0,27,4,27,5,30,2,28,3,29,1,30
4,29,2,27,5,22,0,26,3,30,1,22
